
Gurobi 7.0.2 (linux64, Matlab) logging started Sun Sep  2 08:55:05 2018


Gurobi 7.0.2 (linux64) logging started Sun Sep  2 08:55:05 2018

Optimize a model with 3150 rows, 13837 columns and 79530 nonzeros
Coefficient statistics:
  Matrix range     [5e-01, 1e+03]
  Objective range  [1e+00, 1e+00]
  Bounds range     [1e+00, 5e+04]
  RHS range        [2e+00, 2e+03]
Iteration    Objective       Primal Inf.    Dual Inf.      Time
       0    5.7623162e+02   0.000000e+00   0.000000e+00      0s

Solved in 0 iterations and 0.01 seconds
Optimal objective  5.762316203e+02
